40
1 0 112
2 0 68
2 1 118
3 0 24
3 1 41
3 2 98
4 0 103
4 1 29
4 2 13
4 3 64
5 0 8
5 1 20
5 2 98
5 3 87
5 4 55
6 0 44
6 1 75
6 2 86
6 3 120
6 4 37
6 5 61
7 0 18
7 1 56
7 2 7
7 3 17
7 4 96
7 5 69
7 6 104
8 0 56
8 1 1
8 2 31
8 3 23
8 4 12
8 5 83
8 6 96
8 7 83
9 0 116
9 1 13
9 2 112
9 3 29
9 4 113
9 5 118
9 6 23
9 7 95
9 8 29
10 0 78
10 1 114
10 2 90
10 3 114
10 4 22
10 5 28
10 6 34
10 7 115
10 8 103
10 9 119
11 0 54
11 1 5
11 2 36
11 3 54
11 4 43
11 5 120
11 6 18
11 7 103
11 8 71
11 9 9
11 10 30
12 0 75
12 1 77
12 2 117
12 3 51
12 4 83
12 5 5
12 6 31
12 7 75
12 8 81
12 9 67
12 10 2
12 11 107
13 0 11
13 1 61
13 2 115
13 3 34
13 4 82
13 5 15
13 6 44
13 7 3
13 8 82
13 9 64
13 10 75
13 11 27
13 12 64
14 0 87
14 1 24
14 2 8
14 3 56
14 4 80
14 5 26
14 6 42
14 7 90
14 8 38
14 9 28
14 10 76
14 11 87
14 12 40
14 13 71
15 0 66
15 1 108
15 2 72
15 3 72
15 4 107
15 5 78
15 6 114
15 7 56
15 8 73
15 9 30
15 10 80
15 11 62
15 12 98
15 13 59
15 14 84
16 0 49
16 1 52
16 2 113
16 3 71
16 4 21
16 5 6
16 6 67
16 7 69
16 8 37
16 9 18
16 10 50
16 11 55
16 12 50
16 13 98
16 14 70
16 15 5
17 0 106
17 1 57
17 2 53
17 3 44
17 4 88
17 5 49
17 6 4
17 7 116
17 8 84
17 9 117
17 10 30
17 11 109
17 12 115
17 13 100
17 14 96
17 15 36
17 16 30
18 0 76
18 1 49
18 2 71
18 3 31
18 4 111
18 5 88
18 6 100
18 7 58
18 8 30
18 9 88
18 10 80
18 11 110
18 12 78
18 13 81
18 14 94
18 15 48
18 16 20
18 17 111
19 0 3
19 1 41
19 2 109
19 3 32
19 4 63
19 5 21
19 6 101
19 7 37
19 8 50
19 9 107
19 10 54
19 11 31
19 12 7
19 13 33
19 14 89
19 15 27
19 16 93
19 17 113
19 18 50
20 0 76
20 1 79
20 2 11
20 3 9
20 4 70
20 5 100
20 6 86
20 7 104
20 8 19
20 9 29
20 10 73
20 11 101
20 12 3
20 13 104
20 14 49
20 15 118
20 16 101
20 17 116
20 18 71
20 19 88
21 0 34
21 1 89
21 2 7
21 3 37
21 4 92
21 5 56
21 6 96
21 7 43
21 8 16
21 9 4
21 10 86
21 11 68
21 12 100
21 13 48
21 14 81
21 15 38
21 16 61
21 17 63
21 18 38
21 19 70
21 20 103
22 0 72
22 1 16
22 2 66
22 3 33
22 4 88
22 5 113
22 6 90
22 7 76
22 8 60
22 9 93
22 10 72
22 11 18
22 12 98
22 13 84
22 14 79
22 15 38
22 16 28
22 17 24
22 18 15
22 19 26
22 20 59
22 21 4
23 0 22
23 1 91
23 2 116
23 3 98
23 4 38
23 5 78
23 6 47
23 7 78
23 8 93
23 9 22
23 10 109
23 11 73
23 12 75
23 13 7
23 14 47
23 15 98
23 16 33
23 17 101
23 18 67
23 19 64
23 20 32
23 21 112
23 22 43
24 0 50
24 1 93
24 2 113
24 3 74
24 4 104
24 5 15
24 6 101
24 7 110
24 8 26
24 9 20
24 10 69
24 11 21
24 12 5
24 13 58
24 14 77
24 15 69
24 16 116
24 17 79
24 18 1
24 19 63
24 20 74
24 21 6
24 22 52
24 23 114
25 0 90
25 1 112
25 2 101
25 3 28
25 4 75
25 5 99
25 6 72
25 7 36
25 8 10
25 9 48
25 10 70
25 11 111
25 12 6
25 13 42
25 14 65
25 15 14
25 16 37
25 17 120
25 18 15
25 19 28
25 20 94
25 21 83
25 22 61
25 23 16
25 24 90
26 0 8
26 1 72
26 2 60
26 3 71
26 4 105
26 5 13
26 6 34
26 7 15
26 8 105
26 9 17
26 10 79
26 11 72
26 12 5
26 13 114
26 14 20
26 15 92
26 16 13
26 17 5
26 18 98
26 19 100
26 20 3
26 21 108
26 22 45
26 23 5
26 24 10
26 25 95
27 0 8
27 1 28
27 2 82
27 3 68
27 4 50
27 5 75
27 6 111
27 7 59
27 8 1
27 9 86
27 10 75
27 11 39
27 12 50
27 13 118
27 14 46
27 15 30
27 16 53
27 17 91
27 18 90
27 19 66
27 20 58
27 21 76
27 22 87
27 23 104
27 24 97
27 25 118
27 26 10
28 0 62
28 1 99
28 2 86
28 3 24
28 4 53
28 5 96
28 6 30
28 7 59
28 8 43
28 9 58
28 10 33
28 11 70
28 12 54
28 13 87
28 14 100
28 15 88
28 16 88
28 17 113
28 18 102
28 19 39
28 20 74
28 21 5
28 22 5
28 23 33
28 24 77
28 25 25
28 26 101
28 27 90
29 0 27
29 1 71
29 2 107
29 3 63
29 4 104
29 5 103
29 6 11
29 7 105
29 8 38
29 9 10
29 10 38
29 11 101
29 12 63
29 13 65
29 14 37
29 15 31
29 16 39
29 17 29
29 18 43
29 19 107
29 20 41
29 21 51
29 22 86
29 23 60
29 24 60
29 25 23
29 26 110
29 27 100
29 28 1
30 0 15
30 1 55
30 2 88
30 3 104
30 4 62
30 5 57
30 6 104
30 7 24
30 8 67
30 9 40
30 10 97
30 11 114
30 12 70
30 13 46
30 14 65
30 15 88
30 16 34
30 17 27
30 18 55
30 19 116
30 20 59
30 21 20
30 22 60
30 23 49
30 24 95
30 25 105
30 26 12
30 27 109
30 28 37
30 29 36
31 0 113
31 1 111
31 2 26
31 3 43
31 4 86
31 5 120
31 6 114
31 7 6
31 8 59
31 9 59
31 10 9
31 11 104
31 12 34
31 13 4
31 14 39
31 15 98
31 16 109
31 17 71
31 18 45
31 19 32
31 20 42
31 21 19
31 22 15
31 23 63
31 24 8
31 25 41
31 26 94
31 27 107
31 28 12
31 29 59
31 30 106
32 0 57
32 1 97
32 2 4
32 3 17
32 4 17
32 5 72
32 6 23
32 7 82
32 8 34
32 9 14
32 10 38
32 11 6
32 12 42
32 13 67
32 14 47
32 15 15
32 16 34
32 17 20
32 18 63
32 19 94
32 20 42
32 21 21
32 22 59
32 23 114
32 24 116
32 25 72
32 26 72
32 27 35
32 28 54
32 29 77
32 30 52
32 31 110
33 0 118
33 1 91
33 2 33
33 3 69
33 4 4
33 5 70
33 6 36
33 7 45
33 8 10
33 9 19
33 10 92
33 11 2
33 12 59
33 13 31
33 14 99
33 15 119
33 16 79
33 17 100
33 18 83
33 19 29
33 20 118
33 21 83
33 22 36
33 23 35
33 24 28
33 25 3
33 26 76
33 27 102
33 28 38
33 29 55
33 30 48
33 31 34
33 32 62
34 0 77
34 1 94
34 2 77
34 3 92
34 4 67
34 5 42
34 6 108
34 7 59
34 8 17
34 9 41
34 10 99
34 11 7
34 12 101
34 13 6
34 14 65
34 15 115
34 16 21
34 17 111
34 18 76
34 19 16
34 20 63
34 21 64
34 22 55
34 23 18
34 24 69
34 25 87
34 26 114
34 27 23
34 28 35
34 29 46
34 30 22
34 31 105
34 32 26
34 33 94
35 0 38
35 1 66
35 2 61
35 3 54
35 4 97
35 5 73
35 6 16
35 7 104
35 8 119
35 9 84
35 10 112
35 11 71
35 12 47
35 13 25
35 14 68
35 15 69
35 16 47
35 17 21
35 18 73
35 19 84
35 20 11
35 21 68
35 22 29
35 23 117
35 24 62
35 25 79
35 26 34
35 27 80
35 28 60
35 29 95
35 30 69
35 31 60
35 32 102
35 33 108
35 34 110
36 0 86
36 1 86
36 2 57
36 3 14
36 4 50
36 5 22
36 6 108
36 7 93
36 8 86
36 9 68
36 10 45
36 11 109
36 12 57
36 13 109
36 14 94
36 15 72
36 16 90
36 17 73
36 18 25
36 19 14
36 20 17
36 21 35
36 22 8
36 23 46
36 24 84
36 25 31
36 26 112
36 27 65
36 28 10
36 29 18
36 30 73
36 31 23
36 32 19
36 33 83
36 34 1
36 35 50
37 0 23
37 1 68
37 2 101
37 3 75
37 4 34
37 5 111
37 6 30
37 7 7
37 8 97
37 9 115
37 10 98
37 11 29
37 12 116
37 13 72
37 14 78
37 15 102
37 16 71
37 17 26
37 18 54
37 19 89
37 20 1
37 21 118
37 22 87
37 23 12
37 24 59
37 25 23
37 26 72
37 27 6
37 28 71
37 29 82
37 30 107
37 31 12
37 32 52
37 33 28
37 34 46
37 35 18
37 36 84
38 0 63
38 1 47
38 2 23
38 3 6
38 4 11
38 5 31
38 6 99
38 7 110
38 8 26
38 9 20
38 10 4
38 11 22
38 12 107
38 13 50
38 14 17
38 15 13
38 16 18
38 17 36
38 18 89
38 19 51
38 20 53
38 21 105
38 22 112
38 23 65
38 24 110
38 25 59
38 26 46
38 27 40
38 28 72
38 29 105
38 30 102
38 31 99
38 32 10
38 33 120
38 34 32
38 35 99
38 36 3
38 37 13
39 0 65
39 1 39
39 2 74
39 3 80
39 4 73
39 5 21
39 6 110
39 7 11
39 8 49
39 9 50
39 10 65
39 11 49
39 12 114
39 13 22
39 14 29
39 15 48
39 16 49
39 17 19
39 18 36
39 19 88
39 20 4
39 21 114
39 22 101
39 23 19
39 24 55
39 25 102
39 26 40
39 27 100
39 28 45
39 29 103
39 30 8
39 31 33
39 32 113
39 33 118
39 34 38
39 35 73
39 36 32
39 37 17
39 38 43
